NAME : HealthcareRouting.23035.tour
COMMENT : Length = 23035
COMMENT : Found by LKH-3 [Keld Helsgaun] Sun Apr 20 16:52:14 2025
TYPE : TOUR
DIMENSION : 57
TOUR_SECTION
6
34
39
45
52
46
1
33
37
49
56
55
40
20
26
4
5
27
50
47
15
14
24
10
29
38
31
18
2
21
53
9
35
11
23
57
43
19
41
48
12
42
54
3
30
28
13
7
8
16
17
25
36
32
44
22
51
-1
EOF
